! All-electron GAPW water-cation hyperfine coupling tensor calculation.
! Derived from CP2K Made Simple snippet 055.
! Reference: The CP2K Program Package Made Simple, DOI: 10.1021/acs.jpcb.5c05851

&GLOBAL
  PRINT_LEVEL MEDIUM
  PROJECT h2o-hyperfine-coupling
  RUN_TYPE ENERGY
&END GLOBAL

&FORCE_EVAL
  METHOD QS
  &DFT
    BASIS_SET_FILE_NAME BASIS_SET
    CHARGE 1
    LSD
    MULTIPLICITY 2
    POTENTIAL_FILE_NAME POTENTIAL
    &MGRID
      COMMENSURATE
      CUTOFF 400
      NGRIDS 5
      REL_CUTOFF 50
    &END MGRID
    &POISSON
      PERIODIC NONE
      POISSON ANALYTIC
      &WAVELET
      &END WAVELET
    &END POISSON
    &PRINT
      &HYPERFINE_COUPLING_TENSOR
      &END HYPERFINE_COUPLING_TENSOR
    &END PRINT
    &QS
      EPS_DEFAULT 1.0E-14
      METHOD GAPW
    &END QS
    &SCF
      EPS_SCF 1.0E-5
      MAX_SCF 40
      SCF_GUESS ATOMIC
      &DIAGONALIZATION T
        ALGORITHM STANDARD
        MAX_ITER 20
      &END DIAGONALIZATION
      &MIXING
      &END MIXING
    &END SCF
    &XC
      &XC_FUNCTIONAL PBE
      &END XC_FUNCTIONAL
    &END XC
  &END DFT
  &SUBSYS
    &CELL
      ABC 5.0 5.0 5.0
      PERIODIC NONE
    &END CELL
    &COORD
      O   0.000000   0.000000  -0.065587
      H   0.000000  -0.757136   0.520545
      H   0.000000   0.757136   0.520545
    &END COORD
    &KIND O
      BASIS_SET DZVP-ALL
      POTENTIAL ALL
    &END KIND
    &KIND H
      BASIS_SET DZVP-ALL
      POTENTIAL ALL
    &END KIND
    &TOPOLOGY
      &CENTER_COORDINATES
      &END CENTER_COORDINATES
    &END TOPOLOGY
  &END SUBSYS
&END FORCE_EVAL
