@SET temp 500
&GLOBAL
  PROJECT Si_bulk64
  RUN_TYPE MD
  PRINT_LEVEL LOW
&END GLOBAL
&FORCE_EVAL
  METHOD Quickstep
  &DFT
    BASIS_SET_FILE_NAME  BASIS_SET
    POTENTIAL_FILE_NAME  GTH_POTENTIALS
    &MGRID
      CUTOFF 250
      REL_CUTOFF 60
    &END MGRID
    &QS
      EPS_DEFAULT 1.0E-12
    &END QS
    &SCF
      SCF_GUESS ATOMIC
      EPS_SCF 1.0E-6
      MAX_SCF 500
      ADDED_MOS 10
      CHOLESKY INVERSE
      &SMEAR ON
        METHOD FERMI_DIRAC
        ELECTRONIC_TEMPERATURE [K] 300
      &END SMEAR
      &DIAGONALIZATION
        ALGORITHM STANDARD
      &END DIAGONALIZATION
      &MIXING
        METHOD BROYDEN_MIXING
        ALPHA 0.4
        BETA 0.5
        NBROYDEN 8
      &END MIXING
      &OUTER_SCF
        EPS_SCF 1.0E-6
        MAX_SCF 5
      &END OUTER_SCF
    &END SCF
    &XC
      &XC_FUNCTIONAL PADE
      &END XC_FUNCTIONAL
    &END XC
  &END DFT
  &SUBSYS
    &KIND Si
      ELEMENT	Si
      BASIS_SET SZV-GTH-PADE
      POTENTIAL GTH-PADE-q4
    &END KIND
    &CELL
      A    11.451648895    0.000000000    0.000000000
      B     0.000000000   11.451648895    0.000000000
      C     0.000000000    0.000000000   11.451648895
    &END CELL
    &COORD
      Si    0.000000684    0.000000684    0.2
      Si    0.000000684    2.862912949    2.862913157
      Si    2.862912949    2.862912949    0.000000477
      Si    2.862912949    0.000000684    2.862913157
      Si    4.294367609    1.431455376    4.294367817
      Si    1.431455376    1.431455376    1.431455168
      Si    1.431455376    4.294367609    4.294367817
      Si    4.294367609    4.294367609    1.431455168
      Si    0.000000684    0.000000684    5.725824924
      Si    0.000000684    2.862912949    8.588737605
      Si    2.862912949    2.862912949    5.725824924
      Si    2.862912949    0.000000684    8.588737605
      Si    4.294367609    1.431455376   10.020192265
      Si    1.431455376    1.431455376    7.157279615
      Si    1.431455376    4.294367609   10.020192265
      Si    4.294367609    4.294367609    7.157279615
      Si    0.000000684    5.725825132    0.000000477
      Si    0.000000684    8.588737397    2.862913157
      Si    2.862912949    8.588737397    0.000000477
      Si    2.862912949    5.725825132    2.862913157
      Si    4.294367609    7.157279823    4.294367817
      Si    1.431455376    7.157279823    1.431455168
      Si    1.431455376   10.020192057    4.294367817
      Si    4.294367609   10.020192057    1.431455168
      Si    0.000000684    5.725825132    5.725824924
      Si    0.000000684    8.588737397    8.588737605
      Si    2.862912949    8.588737397    5.725824924
      Si    2.862912949    5.725825132    8.588737605
      Si    4.294367609    7.157279823   10.020192265
      Si    1.431455376    7.157279823    7.157279615
      Si    1.431455376   10.020192057   10.020192265
      Si    4.294367609   10.020192057    7.157279615
      Si    5.725825132    0.000000684    0.000000477
      Si    5.725825132    2.862912949    2.862913157
      Si    8.588737397    2.862912949    0.000000477
      Si    8.588737397    0.000000684    2.862913157
      Si   10.020192057    1.431455376    4.294367817
      Si    7.157279823    1.431455376    1.431455168
      Si    7.157279823    4.294367609    4.294367817
      Si   10.020192057    4.294367609    1.431455168
      Si    5.725825132    0.000000684    5.725824924
      Si    5.725825132    2.862912949    8.588737605
      Si    8.588737397    2.862912949    5.725824924
      Si    8.588737397    0.000000684    8.588737605
      Si   10.020192057    1.431455376   10.020192265
      Si    7.157279823    1.431455376    7.157279615
      Si    7.157279823    4.294367609   10.020192265
      Si   10.020192057    4.294367609    7.157279615
      Si    5.725825132    5.725825132    0.000000477
      Si    5.725825132    8.588737397    2.862913157
      Si    8.588737397    8.588737397    0.000000477
      Si    8.588737397    5.725825132    2.862913157
      Si   10.020192057    7.157279823    4.294367817
      Si    7.157279823    7.157279823    1.431455168
      Si    7.157279823   10.020192057    4.294367817
      Si   10.020192057   10.020192057    1.431455168
      Si    5.725825132    5.725825132    5.725824924
      Si    5.725825132    8.588737397    8.588737605
      Si    8.588737397    8.588737397    5.725824924
      Si    8.588737397    5.725825132    8.588737605
      Si   10.020192057    7.157279823   10.020192265
      Si    7.157279823    7.157279823    7.157279615
      Si    7.157279823   10.020192057   10.020192265
      Si   10.020192057   10.020192057    7.157279615
    &END COORD
    &VELOCITY
      0.0  0.0  0.0
      0.0  0.0  0.0
      0.0  0.0  0.0
      0.0  0.0  0.0
      0.0  0.0  0.0
      0.0  0.0  0.0
      0.0  0.0  0.0
      0.0  0.0  0.0
      0.0  0.0  0.0
      0.0  0.0  0.0
      0.0  0.0  0.0
      0.0  0.0  0.0
      0.0  0.0  0.0
      0.0  0.0  0.0
      0.0  0.0  0.0
      0.0  0.0  0.0
      0.0  0.0  0.0
      0.0  0.0  0.0
      0.0  0.0  0.0
      0.0  0.0  0.0
      0.0  0.0  0.0
      0.0  0.0  0.0
      0.0  0.0  0.0
      0.0  0.0  0.0
      0.0  0.0  0.0
      0.0  0.0  0.0
      0.0  0.0  0.0
      0.0  0.0  0.0
      0.0  0.0  0.0
      0.0  0.0  0.0
      0.0  0.0  0.0
      0.0  0.0  0.0
      0.0  0.0  0.0
      0.0  0.0  0.0
      0.0  0.0  0.0
      0.0  0.0  0.0
      0.0  0.0  0.0
      0.0  0.0  0.0
      0.0  0.0  0.0
      0.0  0.0  0.0
      0.0  0.0  0.0
      0.0  0.0  0.0
      0.0  0.0  0.0
      0.0  0.0  0.0
      0.0  0.0  0.0
      0.0  0.0  0.0
      0.0  0.0  0.0
      0.0  0.0  0.0
      0.0  0.0  0.0
      0.0  0.0  0.0
      0.0  0.0  0.0
      0.0  0.0  0.0
      0.0  0.0  0.0
      0.0  0.0  0.0
      0.0  0.0  0.0
      0.0  0.0  0.0
      0.0  0.0  0.0
      0.0  0.0  0.0
      0.0  0.0  0.0
      0.0  0.0  0.0
      0.0  0.0  0.0
      0.0  0.0  0.0
      0.0  0.0  0.0
      0.0  0.0  0.0
    &END VELOCITY
  &END SUBSYS
  # &PRINT
  #   &FORCES ON
  #   &END FORCES
  # &END PRINT
&END FORCE_EVAL
&MOTION
  &MD
    ENSEMBLE LANGEVIN
    TEMPERATURE $temp
    TIMESTEP 0.2
    STEPS 10000
    &LANGEVIN
      GAMMA 0.01
    &END LANGEVIN
    &THERMAL_REGION
      DO_LANGEVIN_DEFAULT F
      &DEFINE_REGION
        TEMPERATURE $temp
        DO_LANGEVIN T
        LIST 1..24
      &END DEFINE_REGION
      &DEFINE_REGION
        TEMPERATURE $temp
        DO_LANGEVIN F
        LIST 25..64
      &END DEFINE_REGION
      # &PRINT
      #   &LANGEVIN_REGIONS
      #   &END LANGEVIN_REGIONS
      # &END PRINT
    &END THERMAL_REGION
  &END MD
  # &PRINT
  #   &VELOCITIES ON
  #   &END VELOCITIES
  #   &FORCES ON
  #   &END FORCES
  # &END PRINT
  # &CONSTRAINT
  #   &FIXED_ATOMS
  #     COMPONENTS_TO_FIX  XYZ
  #     LIST 1..4
  #   &END FIXED_ATOMS
  # &END CONSTRAINT
&END MOTION
