 # Version information for this restart file 
 # current date 2021-12-09 23:45:43.166
 # current working dir /scratch/e1000/fbrandal/TiO2/MTD/new_one/WALL_ref
 # Program compiled at                             Thu Sep  9 19:09:34 CEST 2021
 # Program compiled on                                                     uan01
 # Program compiled for                                          CP2K-8.2-cpeGNU
 # Source code revision number                                       git:69b8c2e
 &GLOBAL
   PRINT_LEVEL  LOW
   PROJECT_NAME TiO2_metadyn
   RUN_TYPE  MD
   WALLTIME 23:50:00
 &END GLOBAL
 &MOTION
   &MD
     ENSEMBLE  NVT
     STEPS  200000
     STEP_START_VAL  69060
     TIME_START_VAL     3.4529999999973661E+04
     ECONS_START_VAL    -1.3584641131347917E+04
     &THERMOSTAT
       TYPE  CSVR
       REGION  GLOBAL
       &CSVR
         TIMECON     9.9999999999999986E+01
         &THERMOSTAT_ENERGY
               4.6087570771041403E-01
         &END THERMOSTAT_ENERGY
         &RNG_INIT
Wiener process for Thermostat # 1        1 F T F  -1.3078204815428764E+00        4110381599.0        2509728937.0        3369927064.0        2759295889.0        1606071576.0         933278188.0             12345.0             12345.0             12345.0             12345.0             12345.0             12345.0             12345.0             12345.0             12345.0             12345.0             12345.0             12345.0
         &END RNG_INIT
       &END CSVR
     &END THERMOSTAT
     &AVERAGES  T
       &RESTART_AVERAGES
         ITIMES_START  1
         AVECPU     6.3149937240069043E+01
         AVEHUGONIOT     0.0000000000000000E+00
         AVETEMP_BARO     0.0000000000000000E+00
         AVEPOT    -1.3585045380084892E+04
         AVEKIN     4.2889655700083978E-01
         AVETEMP     2.9996602275465114E+02
         AVEKIN_QM     0.0000000000000000E+00
         AVETEMP_QM     0.0000000000000000E+00
         AVEVOL     7.8213834718682047E+04
         AVECELL_A     3.7150126046399876E+01
         AVECELL_B     3.3648463522161698E+01
         AVECELL_C     6.2568832259848733E+01
         AVEALPHA     9.0000000000000000E+01
         AVEBETA     9.0000000000000000E+01
         AVEGAMMA     9.0000000000000000E+01
         AVE_ECONS     1.5041070885074268E+02
         AVE_PRESS    -3.0788905105736735E+03
         AVE_PXX     6.1331390580158850E+03
       &END RESTART_AVERAGES
     &END AVERAGES
   &END MD
   &FREE_ENERGY
     &METADYN
       NT_HILLS  60
       MIN_DISP    -1.0000000000000000E+00
       OLD_HILL_NUMBER  1151
       OLD_HILL_STEP  69060
       WW     5.0000000000000001E-04
       DO_HILLS  T
       STEP_START_VAL  69060
       NHILLS_START_VAL  1151
       &METAVAR
         SCALE     5.0000000000000003E-02
         COLVAR  1
         &WALL
           TYPE  REFLECTIVE
           POSITION     5.0000000000000003E-02
           &REFLECTIVE
             DIRECTION  WALL_MINUS
           &END REFLECTIVE
         &END WALL
       &END METAVAR
       &METAVAR
         SCALE     5.0000000000000003E-02
         COLVAR  2
       &END METAVAR
       &PRINT
         &COLVAR  SILENT
           COMMON_ITERATION_LEVELS  3
           &EACH
             MD  1
           &END EACH
         &END COLVAR
         &HILLS  SILENT
           COMMON_ITERATION_LEVELS  3
           &EACH
             MD  1
           &END EACH
         &END HILLS
       &END PRINT
       &SPAWNED_HILLS_POS
             9.1467383596782270E-01    6.2651095216859437E-02
             9.3513729724459238E-01    6.1081957509680901E-02
             9.3649414196959757E-01    6.5521954009877273E-02
             9.2986480691785134E-01    7.5808698069400979E-02
             9.4094610480259822E-01    8.6655539810056623E-02
             9.5377138571822306E-01    9.4071292263187833E-02
             9.7147050170609872E-01    8.9401265553940706E-02
             9.5227951947218070E-01    7.2703466046358897E-02
             9.3791034347644919E-01    5.5473662329036784E-02
             9.5522214149655738E-01    5.0774774873598522E-02
             9.5182606915041068E-01    4.8422463777650381E-02
             9.2149070058716465E-01    4.3164326396813633E-02
             9.0497818104500372E-01    3.8811803675598652E-02
             8.8875920228806959E-01    3.5055697980543490E-02
             8.7733885888532293E-01    3.3614295388565460E-02
             8.6327262512414848E-01    3.5236162999236521E-02
             8.5556327442464852E-01    3.5046761122837181E-02
             8.1146225068731648E-01    3.6284393787893991E-02
             7.0575190906854757E-01    3.7682473144453506E-02
             6.5697433864730914E-01    4.2412388130044630E-02
             6.3362467928530009E-01    5.6974230821097697E-02
             6.3750875248569883E-01    6.8533173136375511E-02
             6.5039092399646403E-01    7.0670718479713943E-02
             6.3523743371175589E-01    5.7787178816241444E-02
             8.0170726205556031E-01    5.6476671786156493E-02
             9.3539076857251013E-01    6.2219217570418275E-02
             9.6628287340385843E-01    5.9343445421708295E-02
             9.4947129384890361E-01    5.0163936637068092E-02
             9.4312376291052591E-01    5.1419256295178191E-02
             9.6508254941133176E-01    5.7340683174818080E-02
             9.5871111339730675E-01    5.6470835596267449E-02
             9.3228891655281321E-01    5.3527824196450170E-02
             9.0722693895649664E-01    5.3545086912985929E-02
             8.8377494234685816E-01    5.0546384105158888E-02
             7.9377158611801635E-01    4.8524873788340681E-02
             6.4907845667375130E-01    4.7694314838991711E-02
             5.8986124314114841E-01    4.7708158153858329E-02
             4.9754651258664956E-01    5.0780716806338527E-02
             4.7172034996667872E-01    5.3011129833185323E-02
             4.4801299440117509E-01    5.6188398440447852E-02
             4.4964326359786666E-01    6.5313681785246852E-02
             4.9837019812691880E-01    6.8299597058280245E-02
             5.6631938313521313E-01    6.1216760242865612E-02
             6.3617015964786239E-01    6.0135245421280625E-02
             7.7639298644650045E-01    6.0452514850017257E-02
             9.1392509359876040E-01    6.3975821796409829E-02
             9.6603576162422844E-01    6.7179459983018927E-02
             9.7089119159333259E-01    7.3027356576373673E-02
             9.6283964439090397E-01    8.0673503285183662E-02
             9.7207723994083195E-01    8.0599140527737576E-02
             9.6476058866658032E-01    7.2306043035642781E-02
             9.4997317964633743E-01    6.5432908418766880E-02
             9.7299035709762571E-01    7.0275528611107127E-02
             9.7047286567289193E-01    7.4635601241791652E-02
             9.5565529516038905E-01    6.6857133080563069E-02
             9.6599492843388823E-01    6.1770176095437890E-02
             9.7145769546433869E-01    6.1090965605316933E-02
             9.6500828593045840E-01    5.8213090391900160E-02
             9.5823172005972435E-01    5.9313377496759329E-02
             9.5046427065556738E-01    6.4770561707474320E-02
             9.3767016884988652E-01    6.4709828807760966E-02
             8.9755535071560377E-01    6.2501431152447426E-02
             7.5212496251897754E-01    6.4692193542522466E-02
             6.9341417787346504E-01    6.4870354364659419E-02
             7.5609560771181494E-01    6.7025647495094501E-02
             8.4449984660926614E-01    7.2107712580176980E-02
             8.4459076869459426E-01    6.5292241250615390E-02
             8.0632676554758997E-01    5.8368635557749099E-02
             8.2572170899807618E-01    5.7430393473949341E-02
             8.4944208128504617E-01    5.8904598360979665E-02
             7.9494616941438756E-01    5.9574664889491646E-02
             7.5364428869825251E-01    6.3392640150813556E-02
             7.3645536524920663E-01    6.0252855688953874E-02
             7.3829137417667590E-01    5.5493312446806546E-02
             7.6699074535030154E-01    5.9011317467380274E-02
             8.0658792816004199E-01    6.4981467975544285E-02
             8.5948489066806355E-01    6.6536919975118028E-02
             8.6192270282286509E-01    6.4588177556807305E-02
             8.7380131762721502E-01    6.6163552138360129E-02
             8.3738747208673969E-01    6.8329370084692850E-02
             7.7449387746298037E-01    6.6843978881186275E-02
             6.8631536383615677E-01    6.4281905686944932E-02
             7.0906024632037501E-01    6.2135521037324844E-02
             7.2783926161360135E-01    6.0953049447094329E-02
             7.0564059549600477E-01    5.8908887613621036E-02
             6.9802817813912033E-01    6.3510390237295003E-02
             7.4006446303196238E-01    6.8107873494771876E-02
             7.6914490661071477E-01    6.1435676649911480E-02
             8.2275473413397204E-01    5.5896885116600147E-02
             8.4649492125521186E-01    6.3610807568961439E-02
             8.2226091321531170E-01    6.6777985131683731E-02
             8.0385655833172587E-01    5.9206889060715868E-02
             8.3966403779172416E-01    5.7451475959840355E-02
             8.6187120270263462E-01    5.9150192863202451E-02
             8.6974697021559000E-01    6.7198804964915315E-02
             8.5424488370423057E-01    7.7360473193670370E-02
             8.3157087379251471E-01    8.3772870091267160E-02
             8.2718012015246745E-01    8.6805672026620595E-02
             7.7878426472663664E-01    8.5907201862766805E-02
             6.9314814931223012E-01    8.6962728579213319E-02
             5.8010342808514592E-01    9.3370964507953930E-02
             4.0392433288873841E-01    8.3398054667724222E-02
             2.8397569933843353E-01    6.7054585570532843E-02
             2.4791920227940983E-01    6.3966416560931341E-02
             2.3954511210745269E-01    6.3789422494778314E-02
             2.5938019307908761E-01    6.6115129265844452E-02
             3.0273005826442173E-01    6.0847544911831079E-02
             4.0058842035416331E-01    5.8066430267444506E-02
             4.8658889517049903E-01    5.4971354612334329E-02
             5.8457251142569089E-01    5.4394157935426173E-02
             5.7655338467084771E-01    5.5017205968569648E-02
             5.2923335513951275E-01    5.5953310447068173E-02
             4.6164270960698528E-01    5.5681223944414118E-02
             4.0461478771693693E-01    5.5629899547917659E-02
             3.6974294245207806E-01    5.4257701841858644E-02
             3.3718404071958080E-01    5.4852048008579575E-02
             3.4517027741088208E-01    5.5860257768813322E-02
             4.0650456618897263E-01    6.9340769902890481E-02
             4.8782573815008701E-01    7.5934592805048856E-02
             5.4252152047653590E-01    7.2225697441183317E-02
             5.8856101615171252E-01    6.8885485115011719E-02
             5.9322870984780318E-01    6.3807615938580267E-02
             5.5963385347231343E-01    6.1093662631353816E-02
             5.4630087662692672E-01    6.0516046085127895E-02
             5.6743575505566024E-01    5.4265826896594704E-02
             6.2532460323192474E-01    4.9806992191512904E-02
             6.4527697117326976E-01    4.7264956337300830E-02
             6.8506110376045792E-01    4.7068532246648580E-02
             7.3756912320072698E-01    4.8037150938032160E-02
             7.5685606720702014E-01    5.2141732581865441E-02
             6.9388379856629456E-01    5.8532604962073159E-02
             6.2287928299349138E-01    7.2311690583203581E-02
             5.0231009637018464E-01    8.4269825438167911E-02
             3.6156413318709268E-01    7.2828114989568260E-02
             3.0233812196663357E-01    7.0675721031779881E-02
             2.5859931531659486E-01    6.1162340098877777E-02
             1.9880823882086035E-01    4.6456592195327426E-02
             2.0324629976892003E-01    4.4374102878265237E-02
             2.0530434579359216E-01    4.4242189520038493E-02
             2.0478938368067814E-01    4.3473386433300815E-02
             1.8793926085409968E-01    4.4787587181500110E-02
             1.4777922787542697E-01    5.0309349833387265E-02
             1.0847413375573617E-01    5.2531223036161465E-02
             9.1750250567906713E-02    5.9683772296545964E-02
             8.2340932750153528E-02    6.3349587877396404E-02
             7.2672368042503821E-02    6.2620491934411188E-02
             6.7042021196868529E-02    6.8861879957757055E-02
             5.4391565920347107E-02    6.0652684692965267E-02
             5.1208016540993058E-02    5.8220400927597206E-02
             5.0693348335100023E-02    5.7993222106671523E-02
             4.6371644276345166E-02    5.3670902391663555E-02
             4.1285603050079764E-02    4.7252369960427469E-02
             3.8952929130685071E-02    4.2206558754152572E-02
             3.5332457826650565E-02    4.1799736939729555E-02
             3.3992537397370751E-02    4.1685020308534423E-02
             3.4283680014025639E-02    4.3018524155307172E-02
             3.6186206524459218E-02    4.8719794320965508E-02
             3.8697028041890534E-02    5.4598683474944933E-02
             3.9495669594903735E-02    5.5445734221288567E-02
             3.7335089623435937E-02    6.0645340133946964E-02
             3.3009172171234953E-02    6.9695849021725070E-02
             3.1297391139517072E-02    7.8431296358194832E-02
             3.0108623962975641E-02    8.7182001897547254E-02
             2.9028230585412932E-02    8.4856657065106506E-02
             2.6716962410415667E-02    7.4113866510251578E-02
             2.4626351112048705E-02    6.6266147941286269E-02
             2.3125797974852296E-02    5.6808880295437521E-02
             2.0648375095841370E-02    4.8396971361930802E-02
             1.7983535932318693E-02    4.7350837584356639E-02
             1.6551728517160011E-02    5.3792424376356528E-02
             1.5169994549357456E-02    5.7281988499365444E-02
             1.3373258934435438E-02    6.5067799505026114E-02
             1.1434293354277602E-02    7.0699321598029288E-02
             1.0114583042291760E-02    7.7565388166681973E-02
             9.1257339648588946E-03    8.6081504691795596E-02
             8.0960036597119353E-03    8.0251777744799940E-02
             8.2050146340736201E-03    7.4666944046713257E-02
             8.1817268653741303E-03    6.7566508844532303E-02
             8.0280475221111997E-03    5.4205042397521892E-02
             8.0939105750816812E-03    5.3158390039088718E-02
             8.5588194725475589E-03    4.9375854133522905E-02
             9.3542504464271085E-03    4.3486647312291855E-02
             9.5737325750486352E-03    4.2112524421187063E-02
             1.0155634469089814E-02    3.9531678544927958E-02
             1.0482824849234759E-02    3.9382955596908430E-02
             1.1150253318926957E-02    3.7080796948759535E-02
             1.1208058825565113E-02    3.5527953612192922E-02
             1.1130398534443383E-02    3.5323434124281260E-02
             1.0555227770306309E-02    3.6551700748007177E-02
             9.4553893969536434E-03    3.8157878583808973E-02
             9.5734608173674764E-03    4.5312929620990344E-02
             9.1283403951889566E-03    5.3676925025922195E-02
             8.7479429349845376E-03    6.3644377740534303E-02
             8.5298237103102886E-03    6.7875853238899567E-02
             8.0604057304466958E-03    6.4072082421959345E-02
             7.7734153321931546E-03    6.7499092075739023E-02
             7.4976332028180116E-03    6.5912873200846767E-02
             7.2559660952634204E-03    7.0687251673047832E-02
             6.9475142653810055E-03    8.3158173275351258E-02
             7.0561364008576467E-03    7.6339464036271412E-02
             7.2815719068807325E-03    7.0769827247434844E-02
             7.1717888749453359E-03    7.4885705456115212E-02
             6.8763337570094717E-03    7.7611680149146503E-02
             6.6717738529818663E-03    7.7933093932653741E-02
             6.6488180664444254E-03    6.9560736889053204E-02
             7.0037403884668208E-03    6.8760836813179932E-02
             7.2143993246008998E-03    7.3205025891128303E-02
             6.8421686965257121E-03    8.2628572390318150E-02
             6.3025458207485070E-03    1.0200706985057029E-01
             6.1778176674738613E-03    1.2389525936093826E-01
             6.6415888272836360E-03    1.5657080733834103E-01
             6.8415545692807004E-03    2.0755287111462839E-01
             7.0097583731164037E-03    2.3426093968840805E-01
             7.2089009991865840E-03    2.4030767912140932E-01
             7.0547669994563073E-03    2.8683991041871687E-01
             7.5360066729656386E-03    3.2762246096869579E-01
             8.6790150862139492E-03    4.4588165119860573E-01
             8.9867598597148223E-03    6.6013800086551688E-01
             8.6713239740505571E-03    8.9163304001214616E-01
             8.5924868928105805E-03    9.5234437772609426E-01
             9.2869265302953641E-03    8.2733840840527284E-01
             9.2622142349187055E-03    7.2131723678015858E-01
             8.7493466035793912E-03    7.2058447562114225E-01
             8.0882803062019108E-03    7.7435792121368596E-01
             7.8932689636303042E-03    8.8002915517039992E-01
             8.3014264417316450E-03    9.1610654827912819E-01
             8.9023009533967020E-03    9.3746074609205654E-01
             9.4780550440136165E-03    8.8946486102252553E-01
             1.0205902257171700E-02    7.8059040577246319E-01
             1.0845009745209258E-02    7.9167351094009097E-01
             1.1481697958213506E-02    8.9683225574791614E-01
             1.0595445665037288E-02    9.5712297974133964E-01
             1.0115486507901273E-02    8.9973257338122237E-01
             9.2823845649239178E-03    8.3952370966357570E-01
             8.8328874281608169E-03    8.3351909930064672E-01
             8.7323721177650707E-03    9.0109126607767565E-01
             8.6008077962411947E-03    9.3441541551845175E-01
             8.5050246533352435E-03    9.3119176442338325E-01
             8.4767287637390141E-03    9.4057005284255291E-01
             8.0985835392460102E-03    9.0970230068093794E-01
             8.2727644193028426E-03    8.0831143857809273E-01
             7.9943248874029937E-03    6.4668916380940489E-01
             7.6751559962438690E-03    5.5267987622108727E-01
             7.7472237404443180E-03    5.1997471627342873E-01
             7.7332118271631499E-03    5.2873689809317470E-01
             7.6275963078141131E-03    6.0187137918780065E-01
             7.6528223964903077E-03    7.0535307055238461E-01
             7.5193698851843561E-03    7.7815458286642802E-01
             7.3808108818275431E-03    7.9532715939642651E-01
             7.7549869414274570E-03    8.6064679532752908E-01
             8.5006510816994247E-03    9.2897776504008633E-01
             8.6457616338844381E-03    9.2119331107952085E-01
             8.5856389645033292E-03    8.6976338317552615E-01
             8.6722345029079904E-03    7.8745110800616902E-01
             8.2554114956079026E-03    7.0105036110494545E-01
             7.5513440756108524E-03    6.4813109720719053E-01
             6.9317688266999087E-03    5.7420524599202083E-01
             6.7083528143088876E-03    4.7484051309791386E-01
             7.2941250479044957E-03    4.2188087416807207E-01
             7.9492362208878412E-03    3.9328285557472908E-01
             8.1770373617998729E-03    3.5825677390662519E-01
             8.2581727607402601E-03    3.0036221694348708E-01
             8.3284891726357578E-03    2.5155336659330096E-01
             8.2121417252395759E-03    2.2910700852593452E-01
             8.3664481789623869E-03    2.4376484464700704E-01
             7.9046043658793901E-03    2.6460773458651526E-01
             7.9912750999566705E-03    2.5886600492638573E-01
             8.2660339030188844E-03    2.5585672311429547E-01
             8.3115268960497375E-03    2.3972860531409540E-01
             8.8326446979682116E-03    2.2571578712001311E-01
             9.4617291607896423E-03    2.2504720521736554E-01
             1.0301364553167875E-02    2.0210251555697598E-01
             1.1551945800858469E-02    1.8761256570978480E-01
             1.1560495367938180E-02    1.8848845007022283E-01
             1.0976130958258777E-02    1.9189145657039341E-01
             9.8023889012494089E-03    1.8480006156855666E-01
             9.0841726101622920E-03    1.9658370746172207E-01
             8.7527544508744538E-03    1.9022840347580749E-01
             8.5593533106668035E-03    2.0010773289890202E-01
             8.0565802173703134E-03    2.2439908293987282E-01
             8.3584184103931095E-03    2.8295171015443238E-01
             8.8772594319741892E-03    3.9385498710600580E-01
             9.0586522068219905E-03    5.5248048239300895E-01
             9.1924144880831948E-03    7.0084053303927729E-01
             8.9311486877165155E-03    8.0509897093987282E-01
             8.5793954141776489E-03    8.3717766192718490E-01
             8.0724059887550756E-03    8.4130799287554281E-01
             8.3780831508731158E-03    8.2763102120658760E-01
             8.5457652554494154E-03    8.3534057077710033E-01
             8.4708126296298147E-03    8.4500590528183461E-01
             8.1536048440535094E-03    7.8762611604601762E-01
             8.1339863936376842E-03    6.5288497652150856E-01
             8.2321222896859468E-03    5.2192219306468901E-01
             8.2164507121739051E-03    3.8520733045867178E-01
             7.3863115730293666E-03    3.2297110466900714E-01
             6.5114517916082335E-03    3.5305755743480571E-01
             6.1554735313796563E-03    4.6838951025897746E-01
             6.0783522045820817E-03    6.5034965969040259E-01
             6.4845712252159593E-03    7.6735691233025216E-01
             7.0264334858842394E-03    7.3251116564398566E-01
             6.8947597875949748E-03    6.9684542078825606E-01
             6.7530095526194475E-03    6.7303327846959804E-01
             6.8148928187730792E-03    6.9177638659041762E-01
             6.8737272667843971E-03    7.3491818635526063E-01
             7.0183316805184290E-03    7.9182008982723218E-01
             7.1376884011226669E-03    7.8038734236615248E-01
             7.5648483324034631E-03    7.3112614112356189E-01
             8.1407355013082428E-03    5.9488591454477746E-01
             8.5402896309539258E-03    5.0097356503679724E-01
             8.6747595921323681E-03    4.4223499591913601E-01
             8.7418095108449233E-03    4.3034426726906999E-01
             8.7225057388551266E-03    4.8089991285059247E-01
             8.5366748803656634E-03    6.0933161774923750E-01
             8.4993574444850450E-03    7.4132270969892811E-01
             9.0278482625592901E-03    8.2143878909497803E-01
             1.0276351249217625E-02    9.2178716870754385E-01
             1.1007347309370129E-02    9.3637773420440018E-01
             1.1128775245989198E-02    8.6265163184902260E-01
             1.1533029562507277E-02    8.5393506363211347E-01
             1.1429976764181123E-02    9.2209559022887488E-01
             1.1745152343752193E-02    9.4426000813027477E-01
             1.1891624932689698E-02    9.0826693384078216E-01
             1.0901809335918607E-02    9.0420841848435995E-01
             1.0099121168309537E-02    9.0985452258872990E-01
             1.0243494132909346E-02    9.3107287004123129E-01
             1.0493166394150035E-02    9.1984642004793693E-01
             1.1411293631399014E-02    9.3569868215977525E-01
             1.2262325263075916E-02    9.3838824569457691E-01
             1.3070978689089989E-02    9.1261424091875543E-01
             1.2384361616846657E-02    8.9602272086320767E-01
             1.1087557588853483E-02    8.5619160112915615E-01
             1.0337083693263999E-02    7.3107997813832049E-01
             9.2637686669926837E-03    5.6156966617555015E-01
             8.9118493235545750E-03    4.5810983215504586E-01
             8.8489247385623946E-03    3.9231199272205369E-01
             8.9892520718920337E-03    3.7142814244503874E-01
             9.5272485540376581E-03    3.9891003806424230E-01
             9.9416087585355705E-03    4.5862942859777300E-01
             9.1826896662162670E-03    5.6904931473158127E-01
             7.7723326402081294E-03    7.1027546529402807E-01
             7.2247339145130153E-03    8.1016608169108173E-01
             7.0530896250813524E-03    9.0362865656700764E-01
             7.3235149570965320E-03    9.3787347701732426E-01
             7.5792486490587792E-03    9.2889164380385647E-01
             8.1818525489184956E-03    9.3393874060105742E-01
             8.0805288819972860E-03    9.3333775884078174E-01
             7.7334375759831016E-03    9.3115708766698235E-01
             7.9977234681835162E-03    9.2151480357233928E-01
             8.4070613642861156E-03    9.0377408041408180E-01
             8.7589786604332729E-03    8.7906607002988946E-01
             8.1982708318519004E-03    7.4823037087503053E-01
             7.3852489758708126E-03    5.1471633726192045E-01
             7.2239914946957704E-03    3.9073034928171391E-01
             7.1874295016339613E-03    3.0420121913066761E-01
             7.2612683987981382E-03    3.3578971180673228E-01
             7.5537774005226032E-03    4.6558121221418686E-01
             7.8480922654058042E-03    6.4941374677147023E-01
             8.4377179711846561E-03    6.0308655606466111E-01
             9.4136923304328560E-03    4.7549968249697139E-01
             9.7779679726937470E-03    4.1959579902537186E-01
             9.3080952761932685E-03    3.5999609533059967E-01
             9.6282831318058176E-03    3.4917555811687995E-01
             9.8639754567096411E-03    3.3086283990956306E-01
             9.8737285582325002E-03    3.4765093835091515E-01
             9.5625144649378220E-03    3.4381586770621397E-01
             9.3250902597801326E-03    3.1469635668091073E-01
             9.1776025704766746E-03    2.6295417949733746E-01
             9.1508603053561781E-03    2.1392773035236118E-01
             9.2670008499490010E-03    1.7346300977921009E-01
             9.0894807021373245E-03    1.6402445754544326E-01
             9.1173670480087839E-03    1.8057853967868459E-01
             9.8555220521784580E-03    2.0016361404250199E-01
             1.0661031651063052E-02    2.1844259994694024E-01
             1.0625649032910705E-02    2.2706237684868186E-01
             9.7850820886513229E-03    2.7334571390385354E-01
             8.8935151960446331E-03    3.7763196230951035E-01
             8.7755666564343342E-03    5.4251755612964270E-01
             8.8672355817158467E-03    7.0500558845577954E-01
             9.1140312627840895E-03    7.8792996569964646E-01
             8.6659879653575283E-03    7.9513195375836720E-01
             8.4066264899253385E-03    7.5025582013544589E-01
             8.3835104754193552E-03    6.7062136891818980E-01
             8.0315058940174985E-03    5.7285796450904125E-01
             7.9599533267472981E-03    5.6817533203140302E-01
             7.6289045172510117E-03    5.9467718796421576E-01
             7.8724892870067707E-03    6.6499020553004251E-01
             8.2711414355870119E-03    5.9620653284160463E-01
             8.5053461115268143E-03    5.4099938786381763E-01
             8.9850661698310120E-03    4.7627378624770222E-01
             8.7577242928869713E-03    4.0475904203395974E-01
             8.1320244116362978E-03    4.3085436173126113E-01
             7.6642580441831946E-03    5.4128825880675835E-01
             7.4566802913258960E-03    7.1009491807486758E-01
             7.4810879677016081E-03    6.7943316453023073E-01
             8.2992438523691401E-03    6.3901919438643084E-01
             8.5464426224520790E-03    5.4365047047543058E-01
             8.5328505625320711E-03    4.9534613729351828E-01
             8.3518133674612069E-03    5.2580536390361821E-01
             7.8641069863530817E-03    6.8692744136227435E-01
             7.5643954486887604E-03    7.8871102249949754E-01
             7.5259988423242103E-03    7.9244671337264938E-01
             7.5621866412148662E-03    7.1086106300167862E-01
             7.8418254400000643E-03    5.5915212639514900E-01
             8.1937712117110938E-03    4.3696368461200524E-01
             9.0249231229100370E-03    3.9645299684865537E-01
             9.6316340215311935E-03    4.0807213036307305E-01
             9.9134117059194709E-03    4.4771338842513991E-01
             9.7560311965233636E-03    5.2386056296058803E-01
             8.9911912927439549E-03    5.8930919874417198E-01
             8.8982326143800129E-03    6.6497830364546862E-01
             8.4484134211971380E-03    6.3831285558692985E-01
             8.5480339235306808E-03    5.8921627513812636E-01
             8.8503544160636917E-03    6.4322224837147213E-01
             8.5018965689468429E-03    7.3454947048596797E-01
             8.6571698054073443E-03    8.3985544899111064E-01
             8.3337356192446869E-03    9.3355817976538880E-01
             8.1838701912915202E-03    9.5087535975645754E-01
             8.0108501054612386E-03    9.0462805966371895E-01
             8.4385505776741407E-03    8.3742907931200616E-01
             9.8559306804040410E-03    7.3001086365745538E-01
             1.0046187551031370E-02    6.3483392322045262E-01
             1.0503725361191705E-02    5.3917761276528076E-01
             1.0621572876810563E-02    5.1116895880702107E-01
             9.2619124978256771E-03    4.8450778799044381E-01
             8.4055226309789552E-03    4.6521300315176872E-01
             7.7980284956558760E-03    4.2208881153815564E-01
             7.6215954798196581E-03    3.3717160410219454E-01
             8.5522553694304046E-03    3.0472956402784651E-01