@set PROJECT_NAME RTP
@set RUN RT_PROPAGATION
@set data /scratch/snx3000/glebreto/Software/cp2k/data
@set EXC_STATE_1     LR/LR-xasat2_1s_singlet_idx1-1.wfn
@set EXC_STATE_2     LR/LR-xasat2_1s_singlet_idx2-1.wfn

&GLOBAL
  PROJECT ${PROJECT_NAME}
  RUN_TYPE ${RUN}
  PRINT_LEVEL MEDIUM
  WALLTIME 06:30:00
&END GLOBAL

&MOTION
  &MD
    ENSEMBLE NVE
    STEPS 5000
    TIMESTEP [fs] 0.00078
    TEMPERATURE [K] 0.0
  &END MD
&END MOTION

&FORCE_EVAL
  METHOD QS
  &DFT
    &REAL_TIME_PROPAGATION
      MAX_ITER 100
      MAT_EXP ARNOLDI
      EPS_ITER 1.0E-11
      INITIAL_WFN SCF_WFN
      &PRINT
        &FIELD
          FILENAME =applied_field
        &END FIELD
        &PROJECTION_MO
	  REFERENCE_TYPE SCF
          REF_MO_FILE_NAME RTP-RESTART.wfn
          REF_MO_INDEX -1 
          SUM_ON_ALL_REF .FALSE.
          TD_MO_INDEX -1 
          SUM_ON_ALL_TD .FALSE.
          &PRINT
            &EACH
              MD 1
            &END EACH 
          &END PRINT
	&END PROJECTION_MO
	&PROJECTION_MO
          REFERENCE_TYPE XAS_TDP
          REF_MO_FILE_NAME ${EXC_STATE_1}
          TD_MO_INDEX -1
          SUM_ON_ALL_TD .FALSE.
          &PRINT
            &EACH
              MD 1
            &END EACH
          &END PRINT
        &END PROJECTION_MO
	&PROJECTION_MO
          REFERENCE_TYPE XAS_TDP
          REF_MO_FILE_NAME ${EXC_STATE_2}
          TD_MO_INDEX -1
          SUM_ON_ALL_TD .FALSE.
          &PRINT
            &EACH
              MD 1
            &END EACH
          &END PRINT
        &END PROJECTION_MO
      &END PRINT
    &END REAL_TIME_PROPAGATION
    &EFIELD
      ENVELOP GAUSSIAN
      ! gaussian env in fs units
      &GAUSSIAN_ENV
        SIGMA [fs] 0.3073
        T0 [fs] 1.3190
      &END GAUSSIAN_ENV
      ! in W.cm-2
      INTENSITY 4.08E+13
      PHASE 0.0
      POLARISATION 1 0 0
      ! this is 529 ev:
      WAVELENGTH 2.34374655955
    &END EFIELD
    BASIS_SET_FILE_NAME BASIS_PCSEG2
    POTENTIAL_FILE_NAME ${data}/POTENTIAL
    &MGRID
      CUTOFF 1000
      NGRIDS 5
      REL_CUTOFF 60
    &END MGRID
    &QS
      METHOD GAPW
      EPS_FIT 1.0E-6
    &END QS
    &SCF
      MAX_SCF 500
      EPS_SCF 1.0E-8
    &END SCF
    &POISSON
      POISSON_SOLVER WAVELET
      PERIODIC NONE
    &END POISSON
    &XC
	&XC_FUNCTIONAL PBE               
            &PBE               
               SCALE_X 0.55
            &END
         &END XC_FUNCTIONAL
         &HF
            FRACTION 0.45
            &INTERACTION_POTENTIAL
               POTENTIAL_TYPE TRUNCATED   
               CUTOFF_RADIUS 7.0        
            &END INTERACTION_POTENTIAL
         &END HF
     &END XC
    &PRINT
      &MULLIKEN OFF
      &END MULLIKEN
      &HIRSHFELD OFF
      &END HIRSHFELD 
      &MOMENTS
    	 PERIODIC .FALSE.
         FILENAME =dipole
         COMMON_ITERATION_LEVELS 100000
         &EACH
            MD 1
         &END EACH
      &END MOMENTS
    &END PRINT
  &END DFT

  &SUBSYS
    &CELL
      ABC 10 10 10
      ALPHA_BETA_GAMMA 90 90 90
      PERIODIC NONE
    &END CELL
    &TOPOLOGY
      COORD_FILE_NAME carbon-monoxide_opt.xyz 
      COORD_FILE_FORMAT XYZ
    &END TOPOLOGY
    &KIND C
      BASIS_SET pcseg-2
      POTENTIAL ALL
    &END KIND
    &KIND O
      BASIS_SET pcseg-2
      POTENTIAL ALL
    &END KIND
  &END SUBSYS
&END FORCE_EVAL
