 &GLOBAL
   PROJECT_NAME MIL-53-Al-REPEAT-1
   RUN_TYPE  ENERGY
 &END GLOBAL
 &FORCE_EVAL
   METHOD  QS
   &PROPERTIES
     &RESP
       USE_REPEAT_METHOD
       &SPHERE_SAMPLING
         AUTO_VDW_RADII_TABLE UFF 
       &END 
       &PRINT
        &RESP_CHARGES_TO_FILE
        &END
       &END
     &END RESP
   &END PROPERTIES
   &DFT
     BASIS_SET_FILE_NAME ./BASIS
     POTENTIAL_FILE_NAME ./POTENTIAL
     UKS  F
     MULTIPLICITY  1
     CHARGE  0
     &SCF
       MAX_SCF  20
       EPS_SCF     1.000E-05
       SCF_GUESS  ATOMIC
       &OT  T
         MINIMIZER  DIIS
         N_HISTORY_VEC  12
         PRECONDITIONER  FULL_SINGLE_INVERSE
       &END OT
       &OUTER_SCF  T
         EPS_SCF     1.000E-05
         MAX_SCF  200
       &END OUTER_SCF
     &END SCF
     &QS
       EPS_DEFAULT     1.000E-12
     &END QS
     &MGRID
       CUTOFF     300
     &END MGRID
     &XC
       &XC_FUNCTIONAL  PBE
       &END XC_FUNCTIONAL
     &END XC
   &END DFT
   &SUBSYS
     &CELL
       ABC 13.246 16.893 12.592
       ALPHA_BETA_GAMMA 90.0 90.0 90.0
       MULTIPLE_UNIT_CELL  1 1 1
       SYMMETRY  ORTHORHOMBIC
     &END CELL
     &COORD
O     0.11570   0.19650   0.88153
C     0.43985   0.06570   0.01380
H     0.12457   0.60446   0.48592
O     0.36570   0.69650   0.38153
C     0.18985   0.56570   0.51380
H     0.37457   0.10446   0.98592
O     0.45980   0.36270   0.88153
C     0.13565   0.49350   0.01380
H     0.45093   0.95474   0.48592
O     0.20980   0.86270   0.38153
C     0.38565   0.99350   0.51380
H     0.20093   0.45474   0.98592
O     0.45980   0.69650   0.19789
C     0.13565   0.56570   0.06562
H     0.45093   0.10446   0.59349
O     0.20980   0.19650   0.69789
C     0.38565   0.06570   0.56562
H     0.20093   0.60446   0.09349
O     0.11570   0.86270   0.19789
C     0.43985   0.99350   0.06562
H     0.12457   0.45474   0.59349
O     0.36570   0.36270   0.69789
C     0.18985   0.49350   0.56562
H     0.37457   0.95474   0.09349
O     0.45980   0.86270   0.19789
C     0.13565   0.99350   0.06562
H     0.45093   0.45474   0.59349
O     0.20980   0.36270   0.69789
C     0.38565   0.49350   0.56562
H     0.20093   0.95474   0.09349
O     0.11570   0.69650   0.19789
C     0.43985   0.56570   0.06562
H     0.12457   0.10446   0.59349
O     0.36570   0.19650   0.69789
C     0.18985   0.06570   0.56562
H     0.37457   0.60446   0.09349
O     0.11570   0.36270   0.88153
C     0.43985   0.49350   0.01380
H     0.12457   0.95474   0.48592
O     0.36570   0.86270   0.38153
C     0.18985   0.99350   0.51380
H     0.37457   0.45474   0.98592
O     0.45980   0.19650   0.88153
C     0.13565   0.06570   0.01380
H     0.45093   0.60446   0.48592
O     0.20980   0.69650   0.38153
C     0.38565   0.56570   0.51380
H     0.20093   0.10446   0.98592
Al    0.16275   0.27960   0.78971
Al    0.41275   0.27960   0.78971
Al    0.41275   0.77960   0.28971
Al    0.16275   0.77960   0.28971
O     0.03775   0.27960   0.73268
O     0.28775   0.77960   0.23268
O     0.03775   0.77960   0.34674
O     0.28775   0.27960   0.84674
C     0.03775   0.08947   0.99682
C     0.03775   0.15871   0.92282
C     0.28775   0.58947   0.49682
C     0.28775   0.65871   0.42282
C     0.03775   0.46973   0.99682
C     0.03775   0.40049   0.92282
C     0.28775   0.96973   0.49682
C     0.28775   0.90049   0.42282
C     0.03775   0.58947   0.08260
C     0.03775   0.65871   0.15660
C     0.28775   0.08947   0.58260
C     0.28775   0.15871   0.65660
C     0.03775   0.96973   0.08260
C     0.03775   0.90049   0.15660
C     0.28775   0.46973   0.58260
C     0.28775   0.40049   0.65660
H     0.28775   0.27960   0.92615
H     0.03775   0.27960   0.65326
H     0.03775   0.77960   0.42615
H     0.28775   0.77960   0.15326
O     0.61570   0.19650   0.88153
C     0.93985   0.06570   0.01380
H     0.62457   0.60446   0.48592
O     0.86570   0.69650   0.38153
C     0.68985   0.56570   0.51380
H     0.87457   0.10446   0.98592
O     0.95980   0.36270   0.88153
C     0.63565   0.49350   0.01380
H     0.95093   0.95474   0.48592
O     0.70980   0.86270   0.38153
C     0.88565   0.99350   0.51380
H     0.70093   0.45474   0.98592
O     0.95980   0.69650   0.19789
C     0.63565   0.56570   0.06562
H     0.95093   0.10446   0.59349
O     0.70980   0.19650   0.69789
C     0.88565   0.06570   0.56562
H     0.70093   0.60446   0.09349
O     0.61570   0.86270   0.19789
C     0.93985   0.99350   0.06562
H     0.62457   0.45474   0.59349
O     0.86570   0.36270   0.69789
C     0.68985   0.49350   0.56562
H     0.87457   0.95474   0.09349
O     0.95980   0.86270   0.19789
C     0.63565   0.99350   0.06562
H     0.95093   0.45474   0.59349
O     0.70980   0.36270   0.69789
C     0.88565   0.49350   0.56562
H     0.70093   0.95474   0.09349
O     0.61570   0.69650   0.19789
C     0.93985   0.56570   0.06562
H     0.62457   0.10446   0.59349
O     0.86570   0.19650   0.69789
C     0.68985   0.06570   0.56562
H     0.87457   0.60446   0.09349
O     0.61570   0.36270   0.88153
C     0.93985   0.49350   0.01380
H     0.62457   0.95474   0.48592
O     0.86570   0.86270   0.38153
C     0.68985   0.99350   0.51380
H     0.87457   0.45474   0.98592
O     0.95980   0.19650   0.88153
C     0.63565   0.06570   0.01380
H     0.95093   0.60446   0.48592
O     0.70980   0.69650   0.38153
C     0.88565   0.56570   0.51380
H     0.70093   0.10446   0.98592
Al    0.66275   0.27960   0.78971
Al    0.91275   0.27960   0.78971
Al    0.91275   0.77960   0.28971
Al    0.66275   0.77960   0.28971
O     0.53775   0.27960   0.73268
O     0.78775   0.77960   0.23268
O     0.53775   0.77960   0.34674
O     0.78775   0.27960   0.84674
C     0.53775   0.08947   0.99682
C     0.53775   0.15871   0.92282
C     0.78775   0.58947   0.49682
C     0.78775   0.65871   0.42282
C     0.53775   0.46973   0.99682
C     0.53775   0.40049   0.92282
C     0.78775   0.96973   0.49682
C     0.78775   0.90049   0.42282
C     0.53775   0.58947   0.08260
C     0.53775   0.65871   0.15660
C     0.78775   0.08947   0.58260
C     0.78775   0.15871   0.65660
C     0.53775   0.96973   0.08260
C     0.53775   0.90049   0.15660
C     0.78775   0.46973   0.58260
C     0.78775   0.40049   0.65660
H     0.78775   0.27960   0.92615
H     0.53775   0.27960   0.65326
H     0.53775   0.77960   0.42615
H     0.78775   0.77960   0.15326
       SCALED  T
     &END COORD
     &KIND Al
       BASIS_SET SZV-MOLOPT-SR-GTH
       POTENTIAL GTH-PBE-q3
     &END KIND
     &KIND O
       BASIS_SET SZV-MOLOPT-SR-GTH
       POTENTIAL GTH-PBE-q6
     &END KIND
     &KIND C
       BASIS_SET SZV-MOLOPT-SR-GTH
       POTENTIAL GTH-PBE-q4
     &END KIND
     &KIND H
       BASIS_SET SZV-MOLOPT-SR-GTH
       POTENTIAL GTH-PBE-q1
     &END KIND
   &END SUBSYS
 &END FORCE_EVAL
