! Quickstep/GPW water real-time propagation with a Gaussian electric-field pulse.
! Derived from CP2K Made Simple snippet 070.
! Reference: The CP2K Program Package Made Simple, DOI: 10.1021/acs.jpcb.5c05851

&GLOBAL
  PRINT_LEVEL LOW
  PROJECT h2o-real-time-gaussian-field
  RUN_TYPE RT_PROPAGATION
&END GLOBAL

&MOTION
  &MD
    STEPS 2
    TIMESTEP [au_t] 0.1
  &END MD
&END MOTION

&FORCE_EVAL
  METHOD Quickstep
  &DFT
    BASIS_SET_FILE_NAME BASIS_MOLOPT
    POTENTIAL_FILE_NAME POTENTIAL
    &EFIELD
      ENVELOP GAUSSIAN
      INTENSITY 3.5E10
      POLARISATION 0 0 1
      VEC_POT_INITIAL 0.0 0.0 0.0
      &GAUSSIAN_ENV
        SIGMA [fs] 0.002340
        T0 [fs] 0.006240
      &END GAUSSIAN_ENV
    &END EFIELD
    &MGRID
      CUTOFF 200
    &END MGRID
    &POISSON
      PERIODIC NONE
      POISSON_SOLVER WAVELET
    &END POISSON
    &PRINT
      &MOMENTS
        PERIODIC F
      &END MOMENTS
    &END PRINT
    &QS
      METHOD GPW
    &END QS
    &REAL_TIME_PROPAGATION
      EPS_ITER 1.0E-9
      EXP_ACCURACY 1.0E-15
      INITIAL_WFN SCF_WFN
      MAT_EXP TAYLOR
      MAX_ITER 100
      PROPAGATOR ETRS
      VELOCITY_GAUGE T
      VG_COM_NL T
      &PRINT
        &FIELD
        &END FIELD
        &E_CONSTITUENTS
        &END E_CONSTITUENTS
        &CURRENT_INT
        &END CURRENT_INT
      &END PRINT
    &END REAL_TIME_PROPAGATION
    &SCF
      MAX_SCF 20
      SCF_GUESS ATOMIC
    &END SCF
    &XC
      &XC_FUNCTIONAL PADE
      &END XC_FUNCTIONAL
    &END XC
  &END DFT
  &SUBSYS
    &CELL
      ABC 7.0 7.0 7.0
      PERIODIC NONE
    &END CELL
    &COORD
      O  0.000000  0.000000 -0.065587 H2O
      H  0.000000 -0.757136  0.520545 H2O
      H  0.000000  0.757136  0.520545 H2O
    &END COORD
    &KIND O
      BASIS_SET DZVP-MOLOPT-GTH
      POTENTIAL GTH-PADE-q6
    &END KIND
    &KIND H
      BASIS_SET DZVP-MOLOPT-GTH
      POTENTIAL GTH-PADE-q1
    &END KIND
    &TOPOLOGY
      &CENTER_COORDINATES
      &END CENTER_COORDINATES
    &END TOPOLOGY
  &END SUBSYS
&END FORCE_EVAL
