! Quickstep/GPW water real-time propagation after a delta pulse.
! Derived from CP2K Made Simple snippets 061 and 069.
! Reference: The CP2K Program Package Made Simple, DOI: 10.1021/acs.jpcb.5c05851

&GLOBAL
  PROJECT h2o-real-time-propagation
  RUN_TYPE RT_PROPAGATION
&END GLOBAL

&MOTION
  &MD
    STEPS 2
    TIMESTEP [au_t] 0.1
  &END MD
&END MOTION

&FORCE_EVAL
  METHOD Quickstep
  &DFT
    BASIS_SET_FILE_NAME BASIS_MOLOPT
    POTENTIAL_FILE_NAME GTH_POTENTIALS
    &MGRID
      CUTOFF 200
    &END MGRID
    &POISSON
      PERIODIC NONE
      POISSON_SOLVER WAVELET
    &END POISSON
    &PRINT
      &MOMENTS LOW
        COM_NL T
        MAGNETIC T
        MAX_MOMENT 2
        PERIODIC F
        REFERENCE COM
        VEL_REPRS T
      &END MOMENTS
    &END PRINT
    &QS
      METHOD GPW
    &END QS
    &REAL_TIME_PROPAGATION
      APPLY_DELTA_PULSE T
      DELTA_PULSE_DIRECTION 1 0 0
      DELTA_PULSE_SCALE 0.001
      EPS_ITER 1.0E-9
      EXP_ACCURACY 1.0E-10
      INITIAL_WFN SCF_WFN
      MAT_EXP PADE
      MAX_ITER 50
      PROPAGATOR ETRS
    &END REAL_TIME_PROPAGATION
    &SCF
      MAX_SCF 20
      SCF_GUESS ATOMIC
    &END SCF
    &XC
      &XC_FUNCTIONAL PADE
      &END XC_FUNCTIONAL
    &END XC
  &END DFT
  &SUBSYS
    &CELL
      ABC 7.0 7.0 7.0
      PERIODIC NONE
    &END CELL
    &COORD
      O  0.000000  0.000000 -0.065587 H2O
      H  0.000000 -0.757136  0.520545 H2O
      H  0.000000  0.757136  0.520545 H2O
    &END COORD
    &KIND O
      BASIS_SET DZVP-MOLOPT-GTH
      POTENTIAL GTH-PADE-q6
    &END KIND
    &KIND H
      BASIS_SET DZVP-MOLOPT-GTH
      POTENTIAL GTH-PADE-q1
    &END KIND
    &TOPOLOGY
      &CENTER_COORDINATES
      &END CENTER_COORDINATES
    &END TOPOLOGY
  &END SUBSYS
&END FORCE_EVAL
