! Quickstep/GPW diamond calculation with k-point sampling and band output.
! Derived from CP2K Made Simple snippets 007, 008, 030, and 031.
! Reference: The CP2K Program Package Made Simple, DOI: 10.1021/acs.jpcb.5c05851

&GLOBAL
  PROJECT diamond-kpoints-band-structure
  RUN_TYPE ENERGY
&END GLOBAL

&FORCE_EVAL
  METHOD Quickstep
  &DFT
    BASIS_SET_FILE_NAME GTH_BASIS_SETS
    POTENTIAL_FILE_NAME GTH_POTENTIALS
    &KPOINTS
      FULL_GRID ON
      SCHEME MONKHORST-PACK 2 2 2
      SYMMETRY ON
    &END KPOINTS
    &MGRID
      CUTOFF 200
      REL_CUTOFF 40
    &END MGRID
    &QS
      EPS_DEFAULT 1.0E-10
      METHOD GPW
    &END QS
    &SCF
      EPS_SCF 1.0E-6
      MAX_SCF 40
      SCF_GUESS ATOMIC
      &MIXING
        ALPHA 0.3
        METHOD BROYDEN_MIXING
      &END MIXING
    &END SCF
    &XC
      &XC_FUNCTIONAL PBE
      &END XC_FUNCTIONAL
    &END XC
    &PRINT
      &BAND_STRUCTURE
        ADDED_MOS 4
        FILE_NAME diamond.bs
        &KPOINT_SET
          NPOINTS 6
          UNITS B_VECTOR
          SPECIAL_POINT GAMMA 0.0 0.0 0.0
          SPECIAL_POINT X     0.0 0.5 0.5
          SPECIAL_POINT L     0.5 0.5 0.5
          SPECIAL_POINT GAMMA 0.0 0.0 0.0
        &END KPOINT_SET
      &END BAND_STRUCTURE
    &END PRINT
  &END DFT
  &SUBSYS
    &CELL
      ABC 3.56683 3.56683 3.56683
    &END CELL
    &COORD
      SCALED
      C  0.000000  0.000000  0.000000
      C  0.500000  0.500000  0.000000
      C  0.500000  0.000000  0.500000
      C  0.000000  0.500000  0.500000
      C  0.250000  0.250000  0.250000
      C  0.250000  0.750000  0.750000
      C  0.750000  0.250000  0.750000
      C  0.750000  0.750000  0.250000
    &END COORD
    &KIND C
      BASIS_SET DZVP-GTH
      POTENTIAL GTH-PBE-q4
    &END KIND
  &END SUBSYS
&END FORCE_EVAL
