! Quickstep/GPW water single-point calculation using orbital transformation.
! Derived from CP2K Made Simple snippets 001, 005, and 006.
! Reference: The CP2K Program Package Made Simple, DOI: 10.1021/acs.jpcb.5c05851

&GLOBAL
  PROJECT h2o-gpw-ot
  RUN_TYPE ENERGY
&END GLOBAL

&FORCE_EVAL
  METHOD Quickstep
  &DFT
    BASIS_SET_FILE_NAME BASIS_MOLOPT
    POTENTIAL_FILE_NAME GTH_POTENTIALS
    &QS
      EPS_DEFAULT 1.0E-12
      METHOD GPW
    &END QS
    &MGRID
      CUTOFF 400
      REL_CUTOFF 50
      NGRIDS 5
      PROGRESSION_FACTOR 3.0
    &END MGRID
    &POISSON
      PERIODIC NONE
      PSOLVER MT
    &END POISSON
    &SCF
      EPS_SCF 1.0E-6
      MAX_SCF 50
      SCF_GUESS ATOMIC
      &OT
        MINIMIZER DIIS
        PRECONDITIONER FULL_SINGLE_INVERSE
      &END OT
      &OUTER_SCF
        EPS_SCF 1.0E-7
        MAX_SCF 10
      &END OUTER_SCF
    &END SCF
    &XC
      &XC_FUNCTIONAL PBE
      &END XC_FUNCTIONAL
    &END XC
  &END DFT
  &SUBSYS
    &CELL
      ABC 10.0 10.0 10.0
      PERIODIC NONE
    &END CELL
    &COORD
      O  5.0000  5.0000  5.0000
      H  5.7586  5.0000  5.5043
      H  4.2414  5.0000  5.5043
    &END COORD
    &KIND O
      BASIS_SET DZVP-MOLOPT-GTH
      POTENTIAL GTH-PBE-q6
    &END KIND
    &KIND H
      BASIS_SET DZVP-MOLOPT-GTH
      POTENTIAL GTH-PBE-q1
    &END KIND
  &END SUBSYS
&END FORCE_EVAL
