! CP2K Made Simple paper snippet 062
! Section: The CP2K Program Package Made Simple > 7 Excited State Dynamics > 7.3 Surface Hopping via NEWTON-X
! Source: The CP2K Program Package Made Simple, DOI: 10.1021/acs.jpcb.5c05851
! Status: illustrative fragment; see ../README.md before running.

&FORCE_EVAL
  &PRINT
    &FORCES
    &END FORCES
  &END PRINT
  ...
&END FORCE_EVAL
&TDDFPT
  &PRINT
    &NAMD_PRINT
      PRINT_VIRTUALS T
    &END NAMD_PRINT
  &END PRINT
  ...
&END TDDFPT
