! CP2K Made Simple paper snippet 087
! Section: The CP2K Program Package Made Simple > 10 Finite Temperature Effects > 10.6 Vibrational Spectroscopy > 10.6.3 Computing Electromagnetic Moments
! Source: The CP2K Program Package Made Simple, DOI: 10.1021/acs.jpcb.5c05851
! Status: illustrative fragment; see ../README.md before running.

&FORCE_EVAL
  &DFT
    &PRINT
      &MOMENTS
      &END MOMENTS
    &END PRINT
  &END DFT
&END FORCE_EVAL
