&GLOBAL
  PROJECT  H2
  RUN_TYPE ENERGY
&END GLOBAL
&FORCE_EVAL
  METHOD Quickstep
  &DFT
    BASIS_SET_FILE_NAME BASIS-aug               
    ! Custom Basis set file (aug-cc-pVDZ and aug-cc-pVDZ-RIFIT 
    ! from the Basis Set Exchange library - www.basissetexchange.org/)
    POTENTIAL_FILE_NAME POTENTIAL               
    &QS
      METHOD GAPW                               ! All electron calculation
      EPS_DEFAULT 1.0E-16
      EPS_PGF_ORB 1.0E-16
    &END QS
    &POISSON
      PERIODIC NONE
      PSOLVER MULTIPOLE
    &END
    &SCF
      EPS_SCF 1e-7
    &END SCF
    &XC
      &XC_FUNCTIONAL PBE                        ! Choice of functional has a profound influence on the results
      &END XC_FUNCTIONAL                        ! We strongly recommend to use PBE (and evGW0) for BSE runs
      &WF_CORRELATION
        &RI_RPA                                 ! In the RI_RPA and the GW section, additional numerical parameters, e.g.
          &GW
            SELF_CONSISTENCY      evGW0         ! We strongly recommend to use evGW0 (and PBE) for BSE runs
            &BSE  
              TDA                 TDA+ABBA      ! Diagonalizing ABBA and A
              SPIN_CONFIG         SINGLET       ! or TRIPLET
              NUM_PRINT_EXC       15            ! Number of printed excitations
              ENERGY_CUTOFF_OCC   -1            ! Set to positive numbers (eV) to
              ENERGY_CUTOFF_EMPTY -1            ! truncate matrices A_ia,jb and B_ia,jb
              NUM_PRINT_EXC_DESCR -1            ! Number of printed exciton descriptors, -1 to default to NUM_PRINT_EXC
              &BSE_SPECTRUM                     ! Activates computation and output of optical absorption spectrum
                ETA_LIST 0.01 0.02              ! Multiple broadenings can be specified within one run
              &END BSE_SPECTRUM
              &NTO_ANALYSIS
                STATE_LIST 1 2                  ! List of states for which NTOs are computed
                CUBE_FILES T                    ! Write cube files for NTOs
                STRIDE 6 6 6                    ! Coarse grid for smaller example cube files
              &END NTO_ANALYSIS
            &END BSE
          &END GW
        &END RI_RPA
      &END WF_CORRELATION
    &END XC
  &END DFT
  &SUBSYS
    &CELL
      ABC 20 20 20
      PERIODIC NONE
    &END CELL
    &COORD
      H 0.0000 0.0000 0.0000                    ! H2 molecule geometry from GW100 Paper
      H 0.0000 0.0000 0.74144
    &END COORD
    &TOPOLOGY
      &CENTER_COORDINATES
      &END
    &END TOPOLOGY
    &KIND H
      BASIS_SET ORB    aug-cc-pVDZ              ! For production runs, the basis set should be checked for convergence.
      BASIS_SET RI_AUX aug-cc-pVDZ-RIFIT        ! In general, pVDZ should be a solid choice.
      POTENTIAL ALL
    &END KIND
    &KIND O
      BASIS_SET ORB    aug-cc-pVDZ
      BASIS_SET RI_AUX aug-cc-pVDZ-RIFIT
      POTENTIAL ALL
    &END KIND
  &END SUBSYS
&END FORCE_EVAL
