@set PROJECT_NAME RTP
@set RUN RT_PROPAGATION
@set data /scratch/snx3000/glebreto/Software/cp2k/data

&GLOBAL
  PROJECT ${PROJECT_NAME}
  RUN_TYPE ${RUN}
  PRINT_LEVEL MEDIUM
  WALLTIME 23:30:00
&END GLOBAL

&MOTION
  &MD
    ENSEMBLE NVE
    STEPS 50000
    TIMESTEP [fs] 0.00078
    TEMPERATURE [K] 0.0
  &END MD
&END MOTION

&FORCE_EVAL
  METHOD QS
  &DFT
    &REAL_TIME_PROPAGATION
      APPLY_DELTA_PULSE .TRUE.
      DELTA_PULSE_DIRECTION 1 0 0
      DELTA_PULSE_SCALE 0.001
      MAX_ITER 100
      MAT_EXP ARNOLDI
      EPS_ITER 1.0E-11
      INITIAL_WFN SCF_WFN
      PERIODIC .FALSE.
    &END REAL_TIME_PROPAGATION
    BASIS_SET_FILE_NAME BASIS_PCSEG2
    POTENTIAL_FILE_NAME ${data}/POTENTIAL
    &MGRID
      CUTOFF 1000
      NGRIDS 5
      REL_CUTOFF 60
    &END MGRID
    &QS
      METHOD GAPW
      EPS_FIT 1.0E-6
    &END QS

    &SCF
      MAX_SCF 500
      SCF_GUESS RESTART
      EPS_SCF 1.0E-8
    &END SCF

    &POISSON
      POISSON_SOLVER WAVELET
      PERIODIC NONE
    &END POISSON
    
    &XC
	&XC_FUNCTIONAL PBE              
            &PBE                 
               SCALE_X 0.55
            &END
         &END XC_FUNCTIONAL
         &HF
            FRACTION 0.45
            &INTERACTION_POTENTIAL
               POTENTIAL_TYPE TRUNCATED
               CUTOFF_RADIUS 7.0
            &END INTERACTION_POTENTIAL
         &END HF
     &END XC

    &PRINT
      &MULLIKEN OFF
      &END MULLIKEN
      &HIRSHFELD OFF
      &END HIRSHFELD 
      &MOMENTS
    	 PERIODIC .FALSE.
         FILENAME =dipole
         COMMON_ITERATION_LEVELS 100000
         &EACH
            MD 1
         &END EACH
      &END MOMENTS
    &END PRINT
  &END DFT

  &SUBSYS
    &CELL
      ABC 10 10 10
      ALPHA_BETA_GAMMA 90 90 90
      PERIODIC NONE
    &END CELL

    &TOPOLOGY
      COORD_FILE_NAME carbon-monoxide_opt.xyz 
      COORD_FILE_FORMAT XYZ
    &END TOPOLOGY

    &KIND C
      BASIS_SET pcseg-2
      POTENTIAL ALL
    &END KIND

    &KIND O
      BASIS_SET pcseg-2
      POTENTIAL ALL
    &END KIND

  &END SUBSYS
&END FORCE_EVAL
